; benchmark generated from python API
(set-info :status unknown)
(declare-fun x_days () Int)
(declare-fun y_days () Int)
(assert
 (>= x_days (- 36525)))
(assert
 (<= x_days 36525))
(assert
 (>= y_days (- 36525)))
(assert
 (<= y_days 36525))
(assert
 (= x_days 7275))
(assert
 (= y_days 6910))
(assert
 (let (($x29 (or (and (= (mod 2000 4) 0) (and (distinct (mod 2000 100) 0) true)) (= (mod 2000 400) 0))))
 (let ((?x36 (ite (= 3 2) (ite $x29 31 31) (ite (= 3 1) (ite $x29 0 0) 0))))
 (let ((?x40 (ite $x29 60 59)))
 (let ((?x41 (ite (= 3 3) ?x40 ?x36)))
 (let ((?x46 (ite (= 3 4) (ite $x29 91 90) ?x41)))
 (let ((?x52 (ite (= 3 5) (ite $x29 121 120) ?x46)))
 (let ((?x58 (ite (= 3 6) (ite $x29 152 151) ?x52)))
 (let ((?x64 (ite (= 3 7) (ite $x29 182 181) ?x58)))
 (let ((?x70 (ite (= 3 8) (ite $x29 213 212) ?x64)))
 (let ((?x76 (ite (= 3 9) (ite $x29 244 243) ?x70)))
 (let ((?x82 (ite (= 3 10) (ite $x29 274 273) ?x76)))
 (let ((?x88 (ite (= 3 11) (ite $x29 305 304) ?x82)))
 (let ((?x16 (- (+ (* 365 (- 2000 1)) (div (- 2000 1) 4)) (div (- 2000 1) 100))))
 (let ((?x95 (+ (+ ?x16 (div (- 2000 1) 400)) (ite (= 3 12) (ite $x29 335 334) ?x88))))
 (let ((?x97 (+ ?x95 (- 1 1))))
 (let ((?x416 (+ x_days ?x97)))
 (let ((?x477 (mod ?x416 146097)))
 (let ((?x488 (div ?x477 36524)))
 (let ((?x831 (ite (<= 4 ?x488) 3 ?x488)))
 (let ((?x755 (- ?x477 (* ?x831 36524))))
 (let ((?x929 (mod ?x755 1461)))
 (let ((?x215 (div ?x929 365)))
 (let ((?x279 (ite (<= 4 ?x215) 3 ?x215)))
 (let ((?x362 (+ (+ (* (div ?x416 146097) 400) (* ?x831 100)) (* (div ?x755 1461) 4))))
 (let ((?x504 (+ (+ ?x362 ?x279) 1)))
 (let (($x298 (or (and (= (mod ?x504 4) 0) (and (distinct (mod ?x504 100) 0) true)) (= (mod ?x504 400) 0))))
 (let ((?x433 (- ?x929 (* ?x279 365))))
 (let ((?x643 (ite $x298 31 31)))
 (let (($x568 (>= ?x433 ?x643)))
 (let ((?x1126 (ite $x568 (+ (- ?x433 ?x643) 1) (+ (- ?x433 (ite $x298 0 0)) 1))))
 (let ((?x555 (ite $x298 60 59)))
 (let (($x162 (>= ?x433 ?x555)))
 (let ((?x553 (ite $x298 91 90)))
 (let (($x276 (>= ?x433 ?x553)))
 (let ((?x367 (ite $x276 (+ (- ?x433 ?x553) 1) (ite $x162 (+ (- ?x433 ?x555) 1) ?x1126))))
 (let ((?x566 (ite $x298 121 120)))
 (let (($x483 (>= ?x433 ?x566)))
 (let ((?x481 (ite $x298 152 151)))
 (let (($x628 (>= ?x433 ?x481)))
 (let ((?x143 (ite $x628 (+ (- ?x433 ?x481) 1) (ite $x483 (+ (- ?x433 ?x566) 1) ?x367))))
 (let ((?x413 (ite $x298 182 181)))
 (let (($x1346 (>= ?x433 ?x413)))
 (let ((?x545 (ite $x298 213 212)))
 (let (($x246 (>= ?x433 ?x545)))
 (let ((?x309 (ite $x246 (+ (- ?x433 ?x545) 1) (ite $x1346 (+ (- ?x433 ?x413) 1) ?x143))))
 (let ((?x142 (ite $x298 244 243)))
 (let (($x1462 (>= ?x433 ?x142)))
 (let ((?x283 (ite $x298 274 273)))
 (let (($x1617 (>= ?x433 ?x283)))
 (let ((?x419 (ite $x1617 (+ (- ?x433 ?x283) 1) (ite $x1462 (+ (- ?x433 ?x142) 1) ?x309))))
 (let ((?x1060 (ite $x298 305 304)))
 (let (($x1544 (>= ?x433 ?x1060)))
 (let ((?x225 (ite $x298 335 334)))
 (let (($x613 (>= ?x433 ?x225)))
 (let ((?x1139 (ite $x613 (+ (- ?x433 ?x225) 1) (ite $x1544 (+ (- ?x433 ?x1060) 1) ?x419))))
 (let ((?x1456 (ite $x483 5 (ite $x276 4 (ite $x162 3 (ite $x568 2 1))))))
 (let ((?x1615 (ite $x1462 9 (ite $x246 8 (ite $x1346 7 (ite $x628 6 ?x1456))))))
 (let ((?x1252 (- (+ (ite $x613 12 (ite $x1544 11 (ite $x1617 10 ?x1615))) 1) 1)))
 (let ((?x301 (+ (mod ?x1252 12) 1)))
 (let ((?x638 (ite (or (= ?x301 4) (= ?x301 6) (= ?x301 9) (= ?x301 11)) 30 31)))
 (let (($x703 (and (= (mod (+ (+ ?x504 0) (div ?x1252 12)) 4) 0) (and (distinct (mod (+ (+ ?x504 0) (div ?x1252 12)) 100) 0) true))))
 (let (($x480 (or $x703 (= (mod (+ (+ ?x504 0) (div ?x1252 12)) 400) 0))))
 (let ((?x702 (ite (= ?x301 2) (ite $x480 29 28) ?x638)))
 (let ((?x1134 (ite (= 2 ?x301) (ite $x480 31 31) (ite (= 1 ?x301) (ite $x480 0 0) 0))))
 (let ((?x966 (ite (= 4 ?x301) (ite $x480 91 90) (ite (= 3 ?x301) (ite $x480 60 59) ?x1134))))
 (let ((?x470 (ite (= 6 ?x301) (ite $x480 152 151) (ite (= 5 ?x301) (ite $x480 121 120) ?x966))))
 (let ((?x135 (ite (= 8 ?x301) (ite $x480 213 212) (ite (= 7 ?x301) (ite $x480 182 181) ?x470))))
 (let ((?x160 (ite (= 10 ?x301) (ite $x480 274 273) (ite (= 9 ?x301) (ite $x480 244 243) ?x135))))
 (let ((?x1080 (ite (= 12 ?x301) (ite $x480 335 334) (ite (= 11 ?x301) (ite $x480 305 304) ?x160))))
 (let ((?x763 (+ (* 365 (- (+ (+ ?x504 0) (div ?x1252 12)) 1)) (div (- (+ (+ ?x504 0) (div ?x1252 12)) 1) 4))))
 (let ((?x1102 (+ (- ?x763 (div (- (+ (+ ?x504 0) (div ?x1252 12)) 1) 100)) (div (- (+ (+ ?x504 0) (div ?x1252 12)) 1) 400))))
 (let ((?x430 (+ (+ ?x1102 ?x1080) (- (ite (> 1 ?x1139) 1 (ite (> ?x1139 ?x702) ?x702 ?x1139)) 1))))
 (= (- (+ ?x430 0) ?x97) 7304))))))))))))))))))))))))))))))))))))))))))))))))))))))))))))))))))))))))))
(assert
 (let (($x29 (or (and (= (mod 2000 4) 0) (and (distinct (mod 2000 100) 0) true)) (= (mod 2000 400) 0))))
(let ((?x36 (ite (= 3 2) (ite $x29 31 31) (ite (= 3 1) (ite $x29 0 0) 0))))
(let ((?x40 (ite $x29 60 59)))
(let ((?x41 (ite (= 3 3) ?x40 ?x36)))
(let ((?x46 (ite (= 3 4) (ite $x29 91 90) ?x41)))
(let ((?x52 (ite (= 3 5) (ite $x29 121 120) ?x46)))
(let ((?x58 (ite (= 3 6) (ite $x29 152 151) ?x52)))
(let ((?x64 (ite (= 3 7) (ite $x29 182 181) ?x58)))
(let ((?x70 (ite (= 3 8) (ite $x29 213 212) ?x64)))
(let ((?x76 (ite (= 3 9) (ite $x29 244 243) ?x70)))
(let ((?x82 (ite (= 3 10) (ite $x29 274 273) ?x76)))
(let ((?x88 (ite (= 3 11) (ite $x29 305 304) ?x82)))
(let ((?x16 (- (+ (* 365 (- 2000 1)) (div (- 2000 1) 4)) (div (- 2000 1) 100))))
(let ((?x95 (+ (+ ?x16 (div (- 2000 1) 400)) (ite (= 3 12) (ite $x29 335 334) ?x88))))
(let ((?x97 (+ ?x95 (- 1 1))))
(let ((?x229 (+ y_days ?x97)))
(let ((?x1335 (mod ?x229 146097)))
(let ((?x961 (div ?x1335 36524)))
(let ((?x1420 (ite (<= 4 ?x961) 3 ?x961)))
(let ((?x595 (- ?x1335 (* ?x1420 36524))))
(let ((?x343 (mod ?x595 1461)))
(let ((?x707 (div ?x343 365)))
(let ((?x255 (ite (<= 4 ?x707) 3 ?x707)))
(let ((?x389 (+ (+ (* (div ?x229 146097) 400) (* ?x1420 100)) (* (div ?x595 1461) 4))))
(let ((?x788 (+ (+ ?x389 ?x255) 1)))
(let (($x444 (or (and (= (mod ?x788 4) 0) (and (distinct (mod ?x788 100) 0) true)) (= (mod ?x788 400) 0))))
(let ((?x159 (- ?x343 (* ?x255 365))))
(let ((?x235 (ite $x444 31 31)))
(let (($x179 (>= ?x159 ?x235)))
(let ((?x549 (ite $x179 (+ (- ?x159 ?x235) 1) (+ (- ?x159 (ite $x444 0 0)) 1))))
(let ((?x1413 (ite $x444 60 59)))
(let (($x1510 (>= ?x159 ?x1413)))
(let ((?x1511 (ite $x444 91 90)))
(let (($x404 (>= ?x159 ?x1511)))
(let ((?x538 (ite $x404 (+ (- ?x159 ?x1511) 1) (ite $x1510 (+ (- ?x159 ?x1413) 1) ?x549))))
(let ((?x226 (ite $x444 121 120)))
(let (($x523 (>= ?x159 ?x226)))
(let ((?x457 (ite $x444 152 151)))
(let (($x391 (>= ?x159 ?x457)))
(let ((?x151 (ite $x391 (+ (- ?x159 ?x457) 1) (ite $x523 (+ (- ?x159 ?x226) 1) ?x538))))
(let ((?x150 (ite $x444 182 181)))
(let (($x1755 (>= ?x159 ?x150)))
(let ((?x437 (ite $x444 213 212)))
(let (($x1532 (>= ?x159 ?x437)))
(let ((?x476 (ite $x1532 (+ (- ?x159 ?x437) 1) (ite $x1755 (+ (- ?x159 ?x150) 1) ?x151))))
(let ((?x1359 (ite $x444 244 243)))
(let (($x564 (>= ?x159 ?x1359)))
(let ((?x216 (ite $x444 274 273)))
(let (($x1298 (>= ?x159 ?x216)))
(let ((?x600 (ite $x1298 (+ (- ?x159 ?x216) 1) (ite $x564 (+ (- ?x159 ?x1359) 1) ?x476))))
(let ((?x486 (ite $x444 305 304)))
(let (($x1054 (>= ?x159 ?x486)))
(let ((?x237 (ite $x444 335 334)))
(let (($x652 (>= ?x159 ?x237)))
(let ((?x799 (ite $x652 (+ (- ?x159 ?x237) 1) (ite $x1054 (+ (- ?x159 ?x486) 1) ?x600))))
(let ((?x516 (ite $x523 5 (ite $x404 4 (ite $x1510 3 (ite $x179 2 1))))))
(let ((?x395 (ite $x564 9 (ite $x1532 8 (ite $x1755 7 (ite $x391 6 ?x516))))))
(let ((?x435 (- (+ (ite $x652 12 (ite $x1054 11 (ite $x1298 10 ?x395))) 1) 1)))
(let ((?x1523 (+ (mod ?x435 12) 1)))
(let ((?x285 (ite (or (= ?x1523 4) (= ?x1523 6) (= ?x1523 9) (= ?x1523 11)) 30 31)))
(let (($x1000 (and (= (mod (+ (+ ?x788 0) (div ?x435 12)) 4) 0) (and (distinct (mod (+ (+ ?x788 0) (div ?x435 12)) 100) 0) true))))
(let (($x519 (or $x1000 (= (mod (+ (+ ?x788 0) (div ?x435 12)) 400) 0))))
(let ((?x390 (ite (= ?x1523 2) (ite $x519 29 28) ?x285)))
(let ((?x1023 (ite (= 2 ?x1523) (ite $x519 31 31) (ite (= 1 ?x1523) (ite $x519 0 0) 0))))
(let ((?x586 (ite (= 4 ?x1523) (ite $x519 91 90) (ite (= 3 ?x1523) (ite $x519 60 59) ?x1023))))
(let ((?x273 (ite (= 6 ?x1523) (ite $x519 152 151) (ite (= 5 ?x1523) (ite $x519 121 120) ?x586))))
(let ((?x745 (ite (= 8 ?x1523) (ite $x519 213 212) (ite (= 7 ?x1523) (ite $x519 182 181) ?x273))))
(let ((?x1524 (ite (= 10 ?x1523) (ite $x519 274 273) (ite (= 9 ?x1523) (ite $x519 244 243) ?x745))))
(let ((?x587 (ite (= 12 ?x1523) (ite $x519 335 334) (ite (= 11 ?x1523) (ite $x519 305 304) ?x1524))))
(let ((?x154 (+ (* 365 (- (+ (+ ?x788 0) (div ?x435 12)) 1)) (div (- (+ (+ ?x788 0) (div ?x435 12)) 1) 4))))
(let ((?x579 (+ (- ?x154 (div (- (+ (+ ?x788 0) (div ?x435 12)) 1) 100)) (div (- (+ (+ ?x788 0) (div ?x435 12)) 1) 400))))
(let ((?x1133 (+ (+ ?x579 ?x587) (- (ite (> 1 ?x799) 1 (ite (> ?x799 ?x390) ?x390 ?x799)) 1))))
(= (- (+ ?x1133 0) ?x97) 6938))))))))))))))))))))))))))))))))))))))))))))))))))))))))))))))))))))))))))
(check-sat)
